[files]
structure_file = Z:/8-PDF-Juella-PBBCOF/Modelling/Models for PDF/AA-stacking.cif
gr_data_file = Z:/8-PDF-Juella-PBBCOF/Modelling/PDF-Juela-PBBCOF-067/samples/pdf/PBB-130/PBB-130.integrated.subtracted_bkg.corr.2th.qmax20.xy

[range]
r_min = 1.0
r_max = 10.0

[pair_generation]
r_extension = 1.2

[refinement]
staged_refinement = false
refinement_r_step_final = 0.01
max_nfev_final = 60
ftol = 0.001
xtol = 0.001
gtol = 0.001
progress_every_sec = 0.5

[initial_values]
scale = 1.0
a = 38.33500000000001
b = 40.6077
c = 23.0238
alpha = 89.99039999999998
beta = 78.9562
gamma = 89.9995
qdamp = 0.04
delta_broad = 0.0
qmax = 0.0
d = 50.0
d_std = 0.2
delta_g = 0.0
biso_c1 = 0.0
biso_c10 = 0.0
biso_c100 = 0.0
biso_c101 = 0.0
biso_c102 = 0.0
biso_c103 = 0.0
biso_c104 = 0.0
biso_c105 = 0.0
biso_c106 = 0.0
biso_c107 = 0.0
biso_c108 = 0.0
biso_c109 = 0.0
biso_c11 = 0.0
biso_c110 = 0.0
biso_c111 = 0.0
biso_c112 = 0.0
biso_c113 = 0.0
biso_c114 = 0.0
biso_c115 = 0.0
biso_c116 = 0.0
biso_c117 = 0.0
biso_c118 = 0.0
biso_c119 = 0.0
biso_c12 = 0.0
biso_c120 = 0.0
biso_c121 = 0.0
biso_c122 = 0.0
biso_c123 = 0.0
biso_c124 = 0.0
biso_c125 = 0.0
biso_c126 = 0.0
biso_c127 = 0.0
biso_c128 = 0.0
biso_c129 = 0.0
biso_c13 = 0.0
biso_c130 = 0.0
biso_c131 = 0.0
biso_c132 = 0.0
biso_c133 = 0.0
biso_c134 = 0.0
biso_c135 = 0.0
biso_c136 = 0.0
biso_c137 = 0.0
biso_c138 = 0.0
biso_c139 = 0.0
biso_c14 = 0.0
biso_c140 = 0.0
biso_c141 = 0.0
biso_c142 = 0.0
biso_c143 = 0.0
biso_c144 = 0.0
biso_c145 = 0.0
biso_c146 = 0.0
biso_c147 = 0.0
biso_c148 = 0.0
biso_c149 = 0.0
biso_c15 = 0.0
biso_c150 = 0.0
biso_c151 = 0.0
biso_c152 = 0.0
biso_c153 = 0.0
biso_c154 = 0.0
biso_c155 = 0.0
biso_c156 = 0.0
biso_c157 = 0.0
biso_c158 = 0.0
biso_c159 = 0.0
biso_c16 = 0.0
biso_c160 = 0.0
biso_c161 = 0.0
biso_c162 = 0.0
biso_c163 = 0.0
biso_c164 = 0.0
biso_c165 = 0.0
biso_c166 = 0.0
biso_c167 = 0.0
biso_c168 = 0.0
biso_c169 = 0.0
biso_c17 = 0.0
biso_c170 = 0.0
biso_c171 = 0.0
biso_c172 = 0.0
biso_c173 = 0.0
biso_c174 = 0.0
biso_c175 = 0.0
biso_c176 = 0.0
biso_c177 = 0.0
biso_c178 = 0.0
biso_c179 = 0.0
biso_c18 = 0.0
biso_c180 = 0.0
biso_c181 = 0.0
biso_c182 = 0.0
biso_c183 = 0.0
biso_c184 = 0.0
biso_c185 = 0.0
biso_c186 = 0.0
biso_c187 = 0.0
biso_c188 = 0.0
biso_c189 = 0.0
biso_c19 = 0.0
biso_c190 = 0.0
biso_c191 = 0.0
biso_c192 = 0.0
biso_c193 = 0.0
biso_c194 = 0.0
biso_c195 = 0.0
biso_c196 = 0.0
biso_c197 = 0.0
biso_c198 = 0.0
biso_c199 = 0.0
biso_c2 = 0.0
biso_c20 = 0.0
biso_c200 = 0.0
biso_c201 = 0.0
biso_c202 = 0.0
biso_c203 = 0.0
biso_c204 = 0.0
biso_c205 = 0.0
biso_c206 = 0.0
biso_c207 = 0.0
biso_c208 = 0.0
biso_c209 = 0.0
biso_c21 = 0.0
biso_c210 = 0.0
biso_c211 = 0.0
biso_c212 = 0.0
biso_c213 = 0.0
biso_c214 = 0.0
biso_c215 = 0.0
biso_c216 = 0.0
biso_c217 = 0.0
biso_c218 = 0.0
biso_c219 = 0.0
biso_c22 = 0.0
biso_c220 = 0.0
biso_c221 = 0.0
biso_c222 = 0.0
biso_c223 = 0.0
biso_c224 = 0.0
biso_c225 = 0.0
biso_c226 = 0.0
biso_c227 = 0.0
biso_c228 = 0.0
biso_c229 = 0.0
biso_c23 = 0.0
biso_c230 = 0.0
biso_c231 = 0.0
biso_c232 = 0.0
biso_c233 = 0.0
biso_c234 = 0.0
biso_c235 = 0.0
biso_c236 = 0.0
biso_c237 = 0.0
biso_c238 = 0.0
biso_c239 = 0.0
biso_c24 = 0.0
biso_c240 = 0.0
biso_c241 = 0.0
biso_c242 = 0.0
biso_c243 = 0.0
biso_c244 = 0.0
biso_c245 = 0.0
biso_c246 = 0.0
biso_c247 = 0.0
biso_c248 = 0.0
biso_c249 = 0.0
biso_c25 = 0.0
biso_c250 = 0.0
biso_c251 = 0.0
biso_c252 = 0.0
biso_c253 = 0.0
biso_c254 = 0.0
biso_c255 = 0.0
biso_c256 = 0.0
biso_c257 = 0.0
biso_c258 = 0.0
biso_c259 = 0.0
biso_c26 = 0.0
biso_c260 = 0.0
biso_c261 = 0.0
biso_c262 = 0.0
biso_c263 = 0.0
biso_c264 = 0.0
biso_c265 = 0.0
biso_c266 = 0.0
biso_c267 = 0.0
biso_c268 = 0.0
biso_c269 = 0.0
biso_c27 = 0.0
biso_c270 = 0.0
biso_c271 = 0.0
biso_c272 = 0.0
biso_c273 = 0.0
biso_c274 = 0.0
biso_c275 = 0.0
biso_c276 = 0.0
biso_c277 = 0.0
biso_c278 = 0.0
biso_c279 = 0.0
biso_c28 = 0.0
biso_c280 = 0.0
biso_c281 = 0.0
biso_c282 = 0.0
biso_c283 = 0.0
biso_c284 = 0.0
biso_c285 = 0.0
biso_c286 = 0.0
biso_c287 = 0.0
biso_c288 = 0.0
biso_c289 = 0.0
biso_c29 = 0.0
biso_c290 = 0.0
biso_c291 = 0.0
biso_c292 = 0.0
biso_c293 = 0.0
biso_c294 = 0.0
biso_c295 = 0.0
biso_c296 = 0.0
biso_c297 = 0.0
biso_c298 = 0.0
biso_c299 = 0.0
biso_c3 = 0.0
biso_c30 = 0.0
biso_c300 = 0.0
biso_c301 = 0.0
biso_c302 = 0.0
biso_c303 = 0.0
biso_c304 = 0.0
biso_c305 = 0.0
biso_c306 = 0.0
biso_c307 = 0.0
biso_c308 = 0.0
biso_c309 = 0.0
biso_c31 = 0.0
biso_c310 = 0.0
biso_c311 = 0.0
biso_c312 = 0.0
biso_c313 = 0.0
biso_c314 = 0.0
biso_c315 = 0.0
biso_c316 = 0.0
biso_c317 = 0.0
biso_c318 = 0.0
biso_c319 = 0.0
biso_c32 = 0.0
biso_c320 = 0.0
biso_c321 = 0.0
biso_c322 = 0.0
biso_c323 = 0.0
biso_c324 = 0.0
biso_c325 = 0.0
biso_c326 = 0.0
biso_c327 = 0.0
biso_c328 = 0.0
biso_c329 = 0.0
biso_c33 = 0.0
biso_c330 = 0.0
biso_c331 = 0.0
biso_c332 = 0.0
biso_c333 = 0.0
biso_c334 = 0.0
biso_c335 = 0.0
biso_c336 = 0.0
biso_c337 = 0.0
biso_c338 = 0.0
biso_c339 = 0.0
biso_c34 = 0.0
biso_c340 = 0.0
biso_c341 = 0.0
biso_c342 = 0.0
biso_c343 = 0.0
biso_c344 = 0.0
biso_c345 = 0.0
biso_c346 = 0.0
biso_c347 = 0.0
biso_c348 = 0.0
biso_c349 = 0.0
biso_c35 = 0.0
biso_c350 = 0.0
biso_c351 = 0.0
biso_c352 = 0.0
biso_c353 = 0.0
biso_c354 = 0.0
biso_c355 = 0.0
biso_c356 = 0.0
biso_c357 = 0.0
biso_c358 = 0.0
biso_c359 = 0.0
biso_c36 = 0.0
biso_c360 = 0.0
biso_c361 = 0.0
biso_c362 = 0.0
biso_c363 = 0.0
biso_c364 = 0.0
biso_c365 = 0.0
biso_c366 = 0.0
biso_c367 = 0.0
biso_c368 = 0.0
biso_c369 = 0.0
biso_c37 = 0.0
biso_c370 = 0.0
biso_c371 = 0.0
biso_c372 = 0.0
biso_c373 = 0.0
biso_c374 = 0.0
biso_c375 = 0.0
biso_c376 = 0.0
biso_c377 = 0.0
biso_c378 = 0.0
biso_c379 = 0.0
biso_c38 = 0.0
biso_c380 = 0.0
biso_c381 = 0.0
biso_c382 = 0.0
biso_c383 = 0.0
biso_c384 = 0.0
biso_c385 = 0.0
biso_c386 = 0.0
biso_c387 = 0.0
biso_c388 = 0.0
biso_c389 = 0.0
biso_c39 = 0.0
biso_c390 = 0.0
biso_c391 = 0.0
biso_c392 = 0.0
biso_c393 = 0.0
biso_c394 = 0.0
biso_c395 = 0.0
biso_c396 = 0.0
biso_c397 = 0.0
biso_c398 = 0.0
biso_c399 = 0.0
biso_c4 = 0.0
biso_c40 = 0.0
biso_c400 = 0.0
biso_c401 = 0.0
biso_c402 = 0.0
biso_c403 = 0.0
biso_c404 = 0.0
biso_c405 = 0.0
biso_c406 = 0.0
biso_c407 = 0.0
biso_c408 = 0.0
biso_c409 = 0.0
biso_c41 = 0.0
biso_c410 = 0.0
biso_c411 = 0.0
biso_c412 = 0.0
biso_c413 = 0.0
biso_c414 = 0.0
biso_c415 = 0.0
biso_c416 = 0.0
biso_c417 = 0.0
biso_c418 = 0.0
biso_c419 = 0.0
biso_c42 = 0.0
biso_c420 = 0.0
biso_c421 = 0.0
biso_c422 = 0.0
biso_c423 = 0.0
biso_c424 = 0.0
biso_c425 = 0.0
biso_c426 = 0.0
biso_c427 = 0.0
biso_c428 = 0.0
biso_c429 = 0.0
biso_c43 = 0.0
biso_c430 = 0.0
biso_c431 = 0.0
biso_c432 = 0.0
biso_c433 = 0.0
biso_c434 = 0.0
biso_c435 = 0.0
biso_c436 = 0.0
biso_c437 = 0.0
biso_c438 = 0.0
biso_c439 = 0.0
biso_c44 = 0.0
biso_c440 = 0.0
biso_c441 = 0.0
biso_c442 = 0.0
biso_c443 = 0.0
biso_c444 = 0.0
biso_c445 = 0.0
biso_c446 = 0.0
biso_c447 = 0.0
biso_c448 = 0.0
biso_c449 = 0.0
biso_c45 = 0.0
biso_c450 = 0.0
biso_c451 = 0.0
biso_c452 = 0.0
biso_c453 = 0.0
biso_c454 = 0.0
biso_c455 = 0.0
biso_c456 = 0.0
biso_c457 = 0.0
biso_c458 = 0.0
biso_c459 = 0.0
biso_c46 = 0.0
biso_c460 = 0.0
biso_c461 = 0.0
biso_c462 = 0.0
biso_c463 = 0.0
biso_c464 = 0.0
biso_c465 = 0.0
biso_c466 = 0.0
biso_c467 = 0.0
biso_c468 = 0.0
biso_c469 = 0.0
biso_c47 = 0.0
biso_c470 = 0.0
biso_c471 = 0.0
biso_c472 = 0.0
biso_c473 = 0.0
biso_c474 = 0.0
biso_c475 = 0.0
biso_c476 = 0.0
biso_c477 = 0.0
biso_c478 = 0.0
biso_c479 = 0.0
biso_c48 = 0.0
biso_c480 = 0.0
biso_c481 = 0.0
biso_c482 = 0.0
biso_c483 = 0.0
biso_c484 = 0.0
biso_c485 = 0.0
biso_c486 = 0.0
biso_c487 = 0.0
biso_c488 = 0.0
biso_c489 = 0.0
biso_c49 = 0.0
biso_c490 = 0.0
biso_c491 = 0.0
biso_c492 = 0.0
biso_c493 = 0.0
biso_c494 = 0.0
biso_c495 = 0.0
biso_c496 = 0.0
biso_c497 = 0.0
biso_c498 = 0.0
biso_c499 = 0.0
biso_c5 = 0.0
biso_c50 = 0.0
biso_c500 = 0.0
biso_c501 = 0.0
biso_c502 = 0.0
biso_c503 = 0.0
biso_c504 = 0.0
biso_c505 = 0.0
biso_c506 = 0.0
biso_c507 = 0.0
biso_c508 = 0.0
biso_c509 = 0.0
biso_c51 = 0.0
biso_c510 = 0.0
biso_c511 = 0.0
biso_c512 = 0.0
biso_c513 = 0.0
biso_c514 = 0.0
biso_c515 = 0.0
biso_c516 = 0.0
biso_c517 = 0.0
biso_c518 = 0.0
biso_c519 = 0.0
biso_c52 = 0.0
biso_c520 = 0.0
biso_c521 = 0.0
biso_c522 = 0.0
biso_c523 = 0.0
biso_c524 = 0.0
biso_c525 = 0.0
biso_c526 = 0.0
biso_c527 = 0.0
biso_c528 = 0.0
biso_c529 = 0.0
biso_c53 = 0.0
biso_c530 = 0.0
biso_c531 = 0.0
biso_c532 = 0.0
biso_c533 = 0.0
biso_c534 = 0.0
biso_c535 = 0.0
biso_c536 = 0.0
biso_c537 = 0.0
biso_c538 = 0.0
biso_c539 = 0.0
biso_c54 = 0.0
biso_c540 = 0.0
biso_c541 = 0.0
biso_c542 = 0.0
biso_c543 = 0.0
biso_c544 = 0.0
biso_c545 = 0.0
biso_c546 = 0.0
biso_c547 = 0.0
biso_c548 = 0.0
biso_c549 = 0.0
biso_c55 = 0.0
biso_c550 = 0.0
biso_c551 = 0.0
biso_c552 = 0.0
biso_c553 = 0.0
biso_c554 = 0.0
biso_c555 = 0.0
biso_c556 = 0.0
biso_c557 = 0.0
biso_c558 = 0.0
biso_c559 = 0.0
biso_c56 = 0.0
biso_c560 = 0.0
biso_c561 = 0.0
biso_c562 = 0.0
biso_c563 = 0.0
biso_c564 = 0.0
biso_c565 = 0.0
biso_c566 = 0.0
biso_c567 = 0.0
biso_c568 = 0.0
biso_c569 = 0.0
biso_c57 = 0.0
biso_c570 = 0.0
biso_c571 = 0.0
biso_c572 = 0.0
biso_c573 = 0.0
biso_c574 = 0.0
biso_c575 = 0.0
biso_c576 = 0.0
biso_c577 = 0.0
biso_c578 = 0.0
biso_c579 = 0.0
biso_c58 = 0.0
biso_c580 = 0.0
biso_c581 = 0.0
biso_c582 = 0.0
biso_c583 = 0.0
biso_c584 = 0.0
biso_c585 = 0.0
biso_c586 = 0.0
biso_c587 = 0.0
biso_c588 = 0.0
biso_c589 = 0.0
biso_c59 = 0.0
biso_c590 = 0.0
biso_c591 = 0.0
biso_c592 = 0.0
biso_c593 = 0.0
biso_c594 = 0.0
biso_c595 = 0.0
biso_c596 = 0.0
biso_c597 = 0.0
biso_c598 = 0.0
biso_c599 = 0.0
biso_c6 = 0.0
biso_c60 = 0.0
biso_c600 = 0.0
biso_c601 = 0.0
biso_c602 = 0.0
biso_c603 = 0.0
biso_c604 = 0.0
biso_c605 = 0.0
biso_c606 = 0.0
biso_c607 = 0.0
biso_c608 = 0.0
biso_c609 = 0.0
biso_c61 = 0.0
biso_c610 = 0.0
biso_c611 = 0.0
biso_c612 = 0.0
biso_c613 = 0.0
biso_c614 = 0.0
biso_c615 = 0.0
biso_c616 = 0.0
biso_c617 = 0.0
biso_c618 = 0.0
biso_c619 = 0.0
biso_c62 = 0.0
biso_c620 = 0.0
biso_c621 = 0.0
biso_c622 = 0.0
biso_c623 = 0.0
biso_c624 = 0.0
biso_c625 = 0.0
biso_c626 = 0.0
biso_c627 = 0.0
biso_c628 = 0.0
biso_c629 = 0.0
biso_c63 = 0.0
biso_c630 = 0.0
biso_c631 = 0.0
biso_c632 = 0.0
biso_c633 = 0.0
biso_c634 = 0.0
biso_c635 = 0.0
biso_c636 = 0.0
biso_c637 = 0.0
biso_c638 = 0.0
biso_c639 = 0.0
biso_c64 = 0.0
biso_c640 = 0.0
biso_c641 = 0.0
biso_c642 = 0.0
biso_c643 = 0.0
biso_c644 = 0.0
biso_c645 = 0.0
biso_c646 = 0.0
biso_c647 = 0.0
biso_c648 = 0.0
biso_c649 = 0.0
biso_c65 = 0.0
biso_c650 = 0.0
biso_c651 = 0.0
biso_c652 = 0.0
biso_c653 = 0.0
biso_c654 = 0.0
biso_c655 = 0.0
biso_c656 = 0.0
biso_c657 = 0.0
biso_c658 = 0.0
biso_c659 = 0.0
biso_c66 = 0.0
biso_c660 = 0.0
biso_c661 = 0.0
biso_c662 = 0.0
biso_c663 = 0.0
biso_c664 = 0.0
biso_c665 = 0.0
biso_c666 = 0.0
biso_c667 = 0.0
biso_c668 = 0.0
biso_c669 = 0.0
biso_c67 = 0.0
biso_c670 = 0.0
biso_c671 = 0.0
biso_c672 = 0.0
biso_c673 = 0.0
biso_c674 = 0.0
biso_c675 = 0.0
biso_c676 = 0.0
biso_c677 = 0.0
biso_c678 = 0.0
biso_c679 = 0.0
biso_c68 = 0.0
biso_c680 = 0.0
biso_c681 = 0.0
biso_c682 = 0.0
biso_c683 = 0.0
biso_c684 = 0.0
biso_c685 = 0.0
biso_c686 = 0.0
biso_c687 = 0.0
biso_c688 = 0.0
biso_c689 = 0.0
biso_c69 = 0.0
biso_c690 = 0.0
biso_c691 = 0.0
biso_c692 = 0.0
biso_c693 = 0.0
biso_c694 = 0.0
biso_c695 = 0.0
biso_c696 = 0.0
biso_c697 = 0.0
biso_c698 = 0.0
biso_c699 = 0.0
biso_c7 = 0.0
biso_c70 = 0.0
biso_c700 = 0.0
biso_c701 = 0.0
biso_c702 = 0.0
biso_c703 = 0.0
biso_c704 = 0.0
biso_c705 = 0.0
biso_c706 = 0.0
biso_c707 = 0.0
biso_c708 = 0.0
biso_c709 = 0.0
biso_c71 = 0.0
biso_c710 = 0.0
biso_c711 = 0.0
biso_c712 = 0.0
biso_c713 = 0.0
biso_c714 = 0.0
biso_c715 = 0.0
biso_c716 = 0.0
biso_c717 = 0.0
biso_c718 = 0.0
biso_c719 = 0.0
biso_c72 = 0.0
biso_c720 = 0.0
biso_c721 = 0.0
biso_c722 = 0.0
biso_c723 = 0.0
biso_c724 = 0.0
biso_c725 = 0.0
biso_c726 = 0.0
biso_c727 = 0.0
biso_c728 = 0.0
biso_c729 = 0.0
biso_c73 = 0.0
biso_c730 = 0.0
biso_c731 = 0.0
biso_c732 = 0.0
biso_c733 = 0.0
biso_c734 = 0.0
biso_c735 = 0.0
biso_c736 = 0.0
biso_c737 = 0.0
biso_c738 = 0.0
biso_c739 = 0.0
biso_c74 = 0.0
biso_c740 = 0.0
biso_c741 = 0.0
biso_c742 = 0.0
biso_c743 = 0.0
biso_c744 = 0.0
biso_c745 = 0.0
biso_c746 = 0.0
biso_c747 = 0.0
biso_c748 = 0.0
biso_c749 = 0.0
biso_c75 = 0.0
biso_c750 = 0.0
biso_c751 = 0.0
biso_c752 = 0.0
biso_c753 = 0.0
biso_c754 = 0.0
biso_c755 = 0.0
biso_c756 = 0.0
biso_c757 = 0.0
biso_c758 = 0.0
biso_c759 = 0.0
biso_c76 = 0.0
biso_c760 = 0.0
biso_c761 = 0.0
biso_c762 = 0.0
biso_c763 = 0.0
biso_c764 = 0.0
biso_c765 = 0.0
biso_c766 = 0.0
biso_c767 = 0.0
biso_c768 = 0.0
biso_c77 = 0.0
biso_c78 = 0.0
biso_c79 = 0.0
biso_c8 = 0.0
biso_c80 = 0.0
biso_c81 = 0.0
biso_c82 = 0.0
biso_c83 = 0.0
biso_c84 = 0.0
biso_c85 = 0.0
biso_c86 = 0.0
biso_c87 = 0.0
biso_c88 = 0.0
biso_c89 = 0.0
biso_c9 = 0.0
biso_c90 = 0.0
biso_c91 = 0.0
biso_c92 = 0.0
biso_c93 = 0.0
biso_c94 = 0.0
biso_c95 = 0.0
biso_c96 = 0.0
biso_c97 = 0.0
biso_c98 = 0.0
biso_c99 = 0.0
biso_h1 = 0.0
biso_h10 = 0.0
biso_h100 = 0.0
biso_h101 = 0.0
biso_h102 = 0.0
biso_h103 = 0.0
biso_h104 = 0.0
biso_h105 = 0.0
biso_h106 = 0.0
biso_h107 = 0.0
biso_h108 = 0.0
biso_h109 = 0.0
biso_h11 = 0.0
biso_h110 = 0.0
biso_h111 = 0.0
biso_h112 = 0.0
biso_h113 = 0.0
biso_h114 = 0.0
biso_h115 = 0.0
biso_h116 = 0.0
biso_h117 = 0.0
biso_h118 = 0.0
biso_h119 = 0.0
biso_h12 = 0.0
biso_h120 = 0.0
biso_h121 = 0.0
biso_h122 = 0.0
biso_h123 = 0.0
biso_h124 = 0.0
biso_h125 = 0.0
biso_h126 = 0.0
biso_h127 = 0.0
biso_h128 = 0.0
biso_h129 = 0.0
biso_h13 = 0.0
biso_h130 = 0.0
biso_h131 = 0.0
biso_h132 = 0.0
biso_h133 = 0.0
biso_h134 = 0.0
biso_h135 = 0.0
biso_h136 = 0.0
biso_h137 = 0.0
biso_h138 = 0.0
biso_h139 = 0.0
biso_h14 = 0.0
biso_h140 = 0.0
biso_h141 = 0.0
biso_h142 = 0.0
biso_h143 = 0.0
biso_h144 = 0.0
biso_h145 = 0.0
biso_h146 = 0.0
biso_h147 = 0.0
biso_h148 = 0.0
biso_h149 = 0.0
biso_h15 = 0.0
biso_h150 = 0.0
biso_h151 = 0.0
biso_h152 = 0.0
biso_h153 = 0.0
biso_h154 = 0.0
biso_h155 = 0.0
biso_h156 = 0.0
biso_h157 = 0.0
biso_h158 = 0.0
biso_h159 = 0.0
biso_h16 = 0.0
biso_h160 = 0.0
biso_h161 = 0.0
biso_h162 = 0.0
biso_h163 = 0.0
biso_h164 = 0.0
biso_h165 = 0.0
biso_h166 = 0.0
biso_h167 = 0.0
biso_h168 = 0.0
biso_h169 = 0.0
biso_h17 = 0.0
biso_h170 = 0.0
biso_h171 = 0.0
biso_h172 = 0.0
biso_h173 = 0.0
biso_h174 = 0.0
biso_h175 = 0.0
biso_h176 = 0.0
biso_h177 = 0.0
biso_h178 = 0.0
biso_h179 = 0.0
biso_h18 = 0.0
biso_h180 = 0.0
biso_h181 = 0.0
biso_h182 = 0.0
biso_h183 = 0.0
biso_h184 = 0.0
biso_h185 = 0.0
biso_h186 = 0.0
biso_h187 = 0.0
biso_h188 = 0.0
biso_h189 = 0.0
biso_h19 = 0.0
biso_h190 = 0.0
biso_h191 = 0.0
biso_h192 = 0.0
biso_h193 = 0.0
biso_h194 = 0.0
biso_h195 = 0.0
biso_h196 = 0.0
biso_h197 = 0.0
biso_h198 = 0.0
biso_h199 = 0.0
biso_h2 = 0.0
biso_h20 = 0.0
biso_h200 = 0.0
biso_h201 = 0.0
biso_h202 = 0.0
biso_h203 = 0.0
biso_h204 = 0.0
biso_h205 = 0.0
biso_h206 = 0.0
biso_h207 = 0.0
biso_h208 = 0.0
biso_h209 = 0.0
biso_h21 = 0.0
biso_h210 = 0.0
biso_h211 = 0.0
biso_h212 = 0.0
biso_h213 = 0.0
biso_h214 = 0.0
biso_h215 = 0.0
biso_h216 = 0.0
biso_h217 = 0.0
biso_h218 = 0.0
biso_h219 = 0.0
biso_h22 = 0.0
biso_h220 = 0.0
biso_h221 = 0.0
biso_h222 = 0.0
biso_h223 = 0.0
biso_h224 = 0.0
biso_h225 = 0.0
biso_h226 = 0.0
biso_h227 = 0.0
biso_h228 = 0.0
biso_h229 = 0.0
biso_h23 = 0.0
biso_h230 = 0.0
biso_h231 = 0.0
biso_h232 = 0.0
biso_h233 = 0.0
biso_h234 = 0.0
biso_h235 = 0.0
biso_h236 = 0.0
biso_h237 = 0.0
biso_h238 = 0.0
biso_h239 = 0.0
biso_h24 = 0.0
biso_h240 = 0.0
biso_h241 = 0.0
biso_h242 = 0.0
biso_h243 = 0.0
biso_h244 = 0.0
biso_h245 = 0.0
biso_h246 = 0.0
biso_h247 = 0.0
biso_h248 = 0.0
biso_h249 = 0.0
biso_h25 = 0.0
biso_h250 = 0.0
biso_h251 = 0.0
biso_h252 = 0.0
biso_h253 = 0.0
biso_h254 = 0.0
biso_h255 = 0.0
biso_h256 = 0.0
biso_h257 = 0.0
biso_h258 = 0.0
biso_h259 = 0.0
biso_h26 = 0.0
biso_h260 = 0.0
biso_h261 = 0.0
biso_h262 = 0.0
biso_h263 = 0.0
biso_h264 = 0.0
biso_h265 = 0.0
biso_h266 = 0.0
biso_h267 = 0.0
biso_h268 = 0.0
biso_h269 = 0.0
biso_h27 = 0.0
biso_h270 = 0.0
biso_h271 = 0.0
biso_h272 = 0.0
biso_h273 = 0.0
biso_h274 = 0.0
biso_h275 = 0.0
biso_h276 = 0.0
biso_h277 = 0.0
biso_h278 = 0.0
biso_h279 = 0.0
biso_h28 = 0.0
biso_h280 = 0.0
biso_h281 = 0.0
biso_h282 = 0.0
biso_h283 = 0.0
biso_h284 = 0.0
biso_h285 = 0.0
biso_h286 = 0.0
biso_h287 = 0.0
biso_h288 = 0.0
biso_h289 = 0.0
biso_h29 = 0.0
biso_h290 = 0.0
biso_h291 = 0.0
biso_h292 = 0.0
biso_h293 = 0.0
biso_h294 = 0.0
biso_h295 = 0.0
biso_h296 = 0.0
biso_h297 = 0.0
biso_h298 = 0.0
biso_h299 = 0.0
biso_h3 = 0.0
biso_h30 = 0.0
biso_h300 = 0.0
biso_h301 = 0.0
biso_h302 = 0.0
biso_h303 = 0.0
biso_h304 = 0.0
biso_h305 = 0.0
biso_h306 = 0.0
biso_h307 = 0.0
biso_h308 = 0.0
biso_h309 = 0.0
biso_h31 = 0.0
biso_h310 = 0.0
biso_h311 = 0.0
biso_h312 = 0.0
biso_h313 = 0.0
biso_h314 = 0.0
biso_h315 = 0.0
biso_h316 = 0.0
biso_h317 = 0.0
biso_h318 = 0.0
biso_h319 = 0.0
biso_h32 = 0.0
biso_h320 = 0.0
biso_h321 = 0.0
biso_h322 = 0.0
biso_h323 = 0.0
biso_h324 = 0.0
biso_h325 = 0.0
biso_h326 = 0.0
biso_h327 = 0.0
biso_h328 = 0.0
biso_h329 = 0.0
biso_h33 = 0.0
biso_h330 = 0.0
biso_h331 = 0.0
biso_h332 = 0.0
biso_h333 = 0.0
biso_h334 = 0.0
biso_h335 = 0.0
biso_h336 = 0.0
biso_h337 = 0.0
biso_h338 = 0.0
biso_h339 = 0.0
biso_h34 = 0.0
biso_h340 = 0.0
biso_h341 = 0.0
biso_h342 = 0.0
biso_h343 = 0.0
biso_h344 = 0.0
biso_h345 = 0.0
biso_h346 = 0.0
biso_h347 = 0.0
biso_h348 = 0.0
biso_h349 = 0.0
biso_h35 = 0.0
biso_h350 = 0.0
biso_h351 = 0.0
biso_h352 = 0.0
biso_h353 = 0.0
biso_h354 = 0.0
biso_h355 = 0.0
biso_h356 = 0.0
biso_h357 = 0.0
biso_h358 = 0.0
biso_h359 = 0.0
biso_h36 = 0.0
biso_h360 = 0.0
biso_h361 = 0.0
biso_h362 = 0.0
biso_h363 = 0.0
biso_h364 = 0.0
biso_h365 = 0.0
biso_h366 = 0.0
biso_h367 = 0.0
biso_h368 = 0.0
biso_h369 = 0.0
biso_h37 = 0.0
biso_h370 = 0.0
biso_h371 = 0.0
biso_h372 = 0.0
biso_h373 = 0.0
biso_h374 = 0.0
biso_h375 = 0.0
biso_h376 = 0.0
biso_h377 = 0.0
biso_h378 = 0.0
biso_h379 = 0.0
biso_h38 = 0.0
biso_h380 = 0.0
biso_h381 = 0.0
biso_h382 = 0.0
biso_h383 = 0.0
biso_h384 = 0.0
biso_h385 = 0.0
biso_h386 = 0.0
biso_h387 = 0.0
biso_h388 = 0.0
biso_h389 = 0.0
biso_h39 = 0.0
biso_h390 = 0.0
biso_h391 = 0.0
biso_h392 = 0.0
biso_h393 = 0.0
biso_h394 = 0.0
biso_h395 = 0.0
biso_h396 = 0.0
biso_h397 = 0.0
biso_h398 = 0.0
biso_h399 = 0.0
biso_h4 = 0.0
biso_h40 = 0.0
biso_h400 = 0.0
biso_h401 = 0.0
biso_h402 = 0.0
biso_h403 = 0.0
biso_h404 = 0.0
biso_h405 = 0.0
biso_h406 = 0.0
biso_h407 = 0.0
biso_h408 = 0.0
biso_h409 = 0.0
biso_h41 = 0.0
biso_h410 = 0.0
biso_h411 = 0.0
biso_h412 = 0.0
biso_h413 = 0.0
biso_h414 = 0.0
biso_h415 = 0.0
biso_h416 = 0.0
biso_h417 = 0.0
biso_h418 = 0.0
biso_h419 = 0.0
biso_h42 = 0.0
biso_h420 = 0.0
biso_h421 = 0.0
biso_h422 = 0.0
biso_h423 = 0.0
biso_h424 = 0.0
biso_h425 = 0.0
biso_h426 = 0.0
biso_h427 = 0.0
biso_h428 = 0.0
biso_h429 = 0.0
biso_h43 = 0.0
biso_h430 = 0.0
biso_h431 = 0.0
biso_h432 = 0.0
biso_h433 = 0.0
biso_h434 = 0.0
biso_h435 = 0.0
biso_h436 = 0.0
biso_h437 = 0.0
biso_h438 = 0.0
biso_h439 = 0.0
biso_h44 = 0.0
biso_h440 = 0.0
biso_h441 = 0.0
biso_h442 = 0.0
biso_h443 = 0.0
biso_h444 = 0.0
biso_h445 = 0.0
biso_h446 = 0.0
biso_h447 = 0.0
biso_h448 = 0.0
biso_h449 = 0.0
biso_h45 = 0.0
biso_h450 = 0.0
biso_h451 = 0.0
biso_h452 = 0.0
biso_h453 = 0.0
biso_h454 = 0.0
biso_h455 = 0.0
biso_h456 = 0.0
biso_h46 = 0.0
biso_h47 = 0.0
biso_h48 = 0.0
biso_h49 = 0.0
biso_h5 = 0.0
biso_h50 = 0.0
biso_h51 = 0.0
biso_h52 = 0.0
biso_h53 = 0.0
biso_h54 = 0.0
biso_h55 = 0.0
biso_h56 = 0.0
biso_h57 = 0.0
biso_h58 = 0.0
biso_h59 = 0.0
biso_h6 = 0.0
biso_h60 = 0.0
biso_h61 = 0.0
biso_h62 = 0.0
biso_h63 = 0.0
biso_h64 = 0.0
biso_h65 = 0.0
biso_h66 = 0.0
biso_h67 = 0.0
biso_h68 = 0.0
biso_h69 = 0.0
biso_h7 = 0.0
biso_h70 = 0.0
biso_h71 = 0.0
biso_h72 = 0.0
biso_h73 = 0.0
biso_h74 = 0.0
biso_h75 = 0.0
biso_h76 = 0.0
biso_h77 = 0.0
biso_h78 = 0.0
biso_h79 = 0.0
biso_h8 = 0.0
biso_h80 = 0.0
biso_h81 = 0.0
biso_h82 = 0.0
biso_h83 = 0.0
biso_h84 = 0.0
biso_h85 = 0.0
biso_h86 = 0.0
biso_h87 = 0.0
biso_h88 = 0.0
biso_h89 = 0.0
biso_h9 = 0.0
biso_h90 = 0.0
biso_h91 = 0.0
biso_h92 = 0.0
biso_h93 = 0.0
biso_h94 = 0.0
biso_h95 = 0.0
biso_h96 = 0.0
biso_h97 = 0.0
biso_h98 = 0.0
biso_h99 = 0.0
biso_n1 = 0.0
biso_n10 = 0.0
biso_n11 = 0.0
biso_n12 = 0.0
biso_n13 = 0.0
biso_n14 = 0.0
biso_n15 = 0.0
biso_n16 = 0.0
biso_n17 = 0.0
biso_n18 = 0.0
biso_n19 = 0.0
biso_n2 = 0.0
biso_n20 = 0.0
biso_n21 = 0.0
biso_n22 = 0.0
biso_n23 = 0.0
biso_n24 = 0.0
biso_n25 = 0.0
biso_n26 = 0.0
biso_n27 = 0.0
biso_n28 = 0.0
biso_n29 = 0.0
biso_n3 = 0.0
biso_n30 = 0.0
biso_n31 = 0.0
biso_n32 = 0.0
biso_n33 = 0.0
biso_n34 = 0.0
biso_n35 = 0.0
biso_n36 = 0.0
biso_n37 = 0.0
biso_n38 = 0.0
biso_n39 = 0.0
biso_n4 = 0.0
biso_n40 = 0.0
biso_n41 = 0.0
biso_n42 = 0.0
biso_n43 = 0.0
biso_n44 = 0.0
biso_n45 = 0.0
biso_n46 = 0.0
biso_n47 = 0.0
biso_n48 = 0.0
biso_n49 = 0.0
biso_n5 = 0.0
biso_n50 = 0.0
biso_n51 = 0.0
biso_n52 = 0.0
biso_n53 = 0.0
biso_n54 = 0.0
biso_n55 = 0.0
biso_n56 = 0.0
biso_n57 = 0.0
biso_n58 = 0.0
biso_n59 = 0.0
biso_n6 = 0.0
biso_n60 = 0.0
biso_n61 = 0.0
biso_n62 = 0.0
biso_n63 = 0.0
biso_n64 = 0.0
biso_n65 = 0.0
biso_n66 = 0.0
biso_n67 = 0.0
biso_n68 = 0.0
biso_n69 = 0.0
biso_n7 = 0.0
biso_n70 = 0.0
biso_n71 = 0.0
biso_n72 = 0.0
biso_n73 = 0.0
biso_n74 = 0.0
biso_n75 = 0.0
biso_n76 = 0.0
biso_n77 = 0.0
biso_n78 = 0.0
biso_n79 = 0.0
biso_n8 = 0.0
biso_n80 = 0.0
biso_n81 = 0.0
biso_n82 = 0.0
biso_n83 = 0.0
biso_n84 = 0.0
biso_n85 = 0.0
biso_n86 = 0.0
biso_n87 = 0.0
biso_n88 = 0.0
biso_n89 = 0.0
biso_n9 = 0.0
biso_n90 = 0.0
biso_n91 = 0.0
biso_n92 = 0.0
biso_n93 = 0.0
biso_n94 = 0.0
biso_n95 = 0.0
biso_n96 = 0.0
delta1 = 0.0
delta2 = 0.0

[refinable_parameters]
scale = false
a = false
b = false
c = false
alpha = false
beta = false
gamma = false
qdamp = false
delta_broad = false
qmax = false
d = false
d_std = false
delta_g = false
biso_c1 = false
biso_c10 = false
biso_c100 = false
biso_c101 = false
biso_c102 = false
biso_c103 = false
biso_c104 = false
biso_c105 = false
biso_c106 = false
biso_c107 = false
biso_c108 = false
biso_c109 = false
biso_c11 = false
biso_c110 = false
biso_c111 = false
biso_c112 = false
biso_c113 = false
biso_c114 = false
biso_c115 = false
biso_c116 = false
biso_c117 = false
biso_c118 = false
biso_c119 = false
biso_c12 = false
biso_c120 = false
biso_c121 = false
biso_c122 = false
biso_c123 = false
biso_c124 = false
biso_c125 = false
biso_c126 = false
biso_c127 = false
biso_c128 = false
biso_c129 = false
biso_c13 = false
biso_c130 = false
biso_c131 = false
biso_c132 = false
biso_c133 = false
biso_c134 = false
biso_c135 = false
biso_c136 = false
biso_c137 = false
biso_c138 = false
biso_c139 = false
biso_c14 = false
biso_c140 = false
biso_c141 = false
biso_c142 = false
biso_c143 = false
biso_c144 = false
biso_c145 = false
biso_c146 = false
biso_c147 = false
biso_c148 = false
biso_c149 = false
biso_c15 = false
biso_c150 = false
biso_c151 = false
biso_c152 = false
biso_c153 = false
biso_c154 = false
biso_c155 = false
biso_c156 = false
biso_c157 = false
biso_c158 = false
biso_c159 = false
biso_c16 = false
biso_c160 = false
biso_c161 = false
biso_c162 = false
biso_c163 = false
biso_c164 = false
biso_c165 = false
biso_c166 = false
biso_c167 = false
biso_c168 = false
biso_c169 = false
biso_c17 = false
biso_c170 = false
biso_c171 = false
biso_c172 = false
biso_c173 = false
biso_c174 = false
biso_c175 = false
biso_c176 = false
biso_c177 = false
biso_c178 = false
biso_c179 = false
biso_c18 = false
biso_c180 = false
biso_c181 = false
biso_c182 = false
biso_c183 = false
biso_c184 = false
biso_c185 = false
biso_c186 = false
biso_c187 = false
biso_c188 = false
biso_c189 = false
biso_c19 = false
biso_c190 = false
biso_c191 = false
biso_c192 = false
biso_c193 = false
biso_c194 = false
biso_c195 = false
biso_c196 = false
biso_c197 = false
biso_c198 = false
biso_c199 = false
biso_c2 = false
biso_c20 = false
biso_c200 = false
biso_c201 = false
biso_c202 = false
biso_c203 = false
biso_c204 = false
biso_c205 = false
biso_c206 = false
biso_c207 = false
biso_c208 = false
biso_c209 = false
biso_c21 = false
biso_c210 = false
biso_c211 = false
biso_c212 = false
biso_c213 = false
biso_c214 = false
biso_c215 = false
biso_c216 = false
biso_c217 = false
biso_c218 = false
biso_c219 = false
biso_c22 = false
biso_c220 = false
biso_c221 = false
biso_c222 = false
biso_c223 = false
biso_c224 = false
biso_c225 = false
biso_c226 = false
biso_c227 = false
biso_c228 = false
biso_c229 = false
biso_c23 = false
biso_c230 = false
biso_c231 = false
biso_c232 = false
biso_c233 = false
biso_c234 = false
biso_c235 = false
biso_c236 = false
biso_c237 = false
biso_c238 = false
biso_c239 = false
biso_c24 = false
biso_c240 = false
biso_c241 = false
biso_c242 = false
biso_c243 = false
biso_c244 = false
biso_c245 = false
biso_c246 = false
biso_c247 = false
biso_c248 = false
biso_c249 = false
biso_c25 = false
biso_c250 = false
biso_c251 = false
biso_c252 = false
biso_c253 = false
biso_c254 = false
biso_c255 = false
biso_c256 = false
biso_c257 = false
biso_c258 = false
biso_c259 = false
biso_c26 = false
biso_c260 = false
biso_c261 = false
biso_c262 = false
biso_c263 = false
biso_c264 = false
biso_c265 = false
biso_c266 = false
biso_c267 = false
biso_c268 = false
biso_c269 = false
biso_c27 = false
biso_c270 = false
biso_c271 = false
biso_c272 = false
biso_c273 = false
biso_c274 = false
biso_c275 = false
biso_c276 = false
biso_c277 = false
biso_c278 = false
biso_c279 = false
biso_c28 = false
biso_c280 = false
biso_c281 = false
biso_c282 = false
biso_c283 = false
biso_c284 = false
biso_c285 = false
biso_c286 = false
biso_c287 = false
biso_c288 = false
biso_c289 = false
biso_c29 = false
biso_c290 = false
biso_c291 = false
biso_c292 = false
biso_c293 = false
biso_c294 = false
biso_c295 = false
biso_c296 = false
biso_c297 = false
biso_c298 = false
biso_c299 = false
biso_c3 = false
biso_c30 = false
biso_c300 = false
biso_c301 = false
biso_c302 = false
biso_c303 = false
biso_c304 = false
biso_c305 = false
biso_c306 = false
biso_c307 = false
biso_c308 = false
biso_c309 = false
biso_c31 = false
biso_c310 = false
biso_c311 = false
biso_c312 = false
biso_c313 = false
biso_c314 = false
biso_c315 = false
biso_c316 = false
biso_c317 = false
biso_c318 = false
biso_c319 = false
biso_c32 = false
biso_c320 = false
biso_c321 = false
biso_c322 = false
biso_c323 = false
biso_c324 = false
biso_c325 = false
biso_c326 = false
biso_c327 = false
biso_c328 = false
biso_c329 = false
biso_c33 = false
biso_c330 = false
biso_c331 = false
biso_c332 = false
biso_c333 = false
biso_c334 = false
biso_c335 = false
biso_c336 = false
biso_c337 = false
biso_c338 = false
biso_c339 = false
biso_c34 = false
biso_c340 = false
biso_c341 = false
biso_c342 = false
biso_c343 = false
biso_c344 = false
biso_c345 = false
biso_c346 = false
biso_c347 = false
biso_c348 = false
biso_c349 = false
biso_c35 = false
biso_c350 = false
biso_c351 = false
biso_c352 = false
biso_c353 = false
biso_c354 = false
biso_c355 = false
biso_c356 = false
biso_c357 = false
biso_c358 = false
biso_c359 = false
biso_c36 = false
biso_c360 = false
biso_c361 = false
biso_c362 = false
biso_c363 = false
biso_c364 = false
biso_c365 = false
biso_c366 = false
biso_c367 = false
biso_c368 = false
biso_c369 = false
biso_c37 = false
biso_c370 = false
biso_c371 = false
biso_c372 = false
biso_c373 = false
biso_c374 = false
biso_c375 = false
biso_c376 = false
biso_c377 = false
biso_c378 = false
biso_c379 = false
biso_c38 = false
biso_c380 = false
biso_c381 = false
biso_c382 = false
biso_c383 = false
biso_c384 = false
biso_c385 = false
biso_c386 = false
biso_c387 = false
biso_c388 = false
biso_c389 = false
biso_c39 = false
biso_c390 = false
biso_c391 = false
biso_c392 = false
biso_c393 = false
biso_c394 = false
biso_c395 = false
biso_c396 = false
biso_c397 = false
biso_c398 = false
biso_c399 = false
biso_c4 = false
biso_c40 = false
biso_c400 = false
biso_c401 = false
biso_c402 = false
biso_c403 = false
biso_c404 = false
biso_c405 = false
biso_c406 = false
biso_c407 = false
biso_c408 = false
biso_c409 = false
biso_c41 = false
biso_c410 = false
biso_c411 = false
biso_c412 = false
biso_c413 = false
biso_c414 = false
biso_c415 = false
biso_c416 = false
biso_c417 = false
biso_c418 = false
biso_c419 = false
biso_c42 = false
biso_c420 = false
biso_c421 = false
biso_c422 = false
biso_c423 = false
biso_c424 = false
biso_c425 = false
biso_c426 = false
biso_c427 = false
biso_c428 = false
biso_c429 = false
biso_c43 = false
biso_c430 = false
biso_c431 = false
biso_c432 = false
biso_c433 = false
biso_c434 = false
biso_c435 = false
biso_c436 = false
biso_c437 = false
biso_c438 = false
biso_c439 = false
biso_c44 = false
biso_c440 = false
biso_c441 = false
biso_c442 = false
biso_c443 = false
biso_c444 = false
biso_c445 = false
biso_c446 = false
biso_c447 = false
biso_c448 = false
biso_c449 = false
biso_c45 = false
biso_c450 = false
biso_c451 = false
biso_c452 = false
biso_c453 = false
biso_c454 = false
biso_c455 = false
biso_c456 = false
biso_c457 = false
biso_c458 = false
biso_c459 = false
biso_c46 = false
biso_c460 = false
biso_c461 = false
biso_c462 = false
biso_c463 = false
biso_c464 = false
biso_c465 = false
biso_c466 = false
biso_c467 = false
biso_c468 = false
biso_c469 = false
biso_c47 = false
biso_c470 = false
biso_c471 = false
biso_c472 = false
biso_c473 = false
biso_c474 = false
biso_c475 = false
biso_c476 = false
biso_c477 = false
biso_c478 = false
biso_c479 = false
biso_c48 = false
biso_c480 = false
biso_c481 = false
biso_c482 = false
biso_c483 = false
biso_c484 = false
biso_c485 = false
biso_c486 = false
biso_c487 = false
biso_c488 = false
biso_c489 = false
biso_c49 = false
biso_c490 = false
biso_c491 = false
biso_c492 = false
biso_c493 = false
biso_c494 = false
biso_c495 = false
biso_c496 = false
biso_c497 = false
biso_c498 = false
biso_c499 = false
biso_c5 = false
biso_c50 = false
biso_c500 = false
biso_c501 = false
biso_c502 = false
biso_c503 = false
biso_c504 = false
biso_c505 = false
biso_c506 = false
biso_c507 = false
biso_c508 = false
biso_c509 = false
biso_c51 = false
biso_c510 = false
biso_c511 = false
biso_c512 = false
biso_c513 = false
biso_c514 = false
biso_c515 = false
biso_c516 = false
biso_c517 = false
biso_c518 = false
biso_c519 = false
biso_c52 = false
biso_c520 = false
biso_c521 = false
biso_c522 = false
biso_c523 = false
biso_c524 = false
biso_c525 = false
biso_c526 = false
biso_c527 = false
biso_c528 = false
biso_c529 = false
biso_c53 = false
biso_c530 = false
biso_c531 = false
biso_c532 = false
biso_c533 = false
biso_c534 = false
biso_c535 = false
biso_c536 = false
biso_c537 = false
biso_c538 = false
biso_c539 = false
biso_c54 = false
biso_c540 = false
biso_c541 = false
biso_c542 = false
biso_c543 = false
biso_c544 = false
biso_c545 = false
biso_c546 = false
biso_c547 = false
biso_c548 = false
biso_c549 = false
biso_c55 = false
biso_c550 = false
biso_c551 = false
biso_c552 = false
biso_c553 = false
biso_c554 = false
biso_c555 = false
biso_c556 = false
biso_c557 = false
biso_c558 = false
biso_c559 = false
biso_c56 = false
biso_c560 = false
biso_c561 = false
biso_c562 = false
biso_c563 = false
biso_c564 = false
biso_c565 = false
biso_c566 = false
biso_c567 = false
biso_c568 = false
biso_c569 = false
biso_c57 = false
biso_c570 = false
biso_c571 = false
biso_c572 = false
biso_c573 = false
biso_c574 = false
biso_c575 = false
biso_c576 = false
biso_c577 = false
biso_c578 = false
biso_c579 = false
biso_c58 = false
biso_c580 = false
biso_c581 = false
biso_c582 = false
biso_c583 = false
biso_c584 = false
biso_c585 = false
biso_c586 = false
biso_c587 = false
biso_c588 = false
biso_c589 = false
biso_c59 = false
biso_c590 = false
biso_c591 = false
biso_c592 = false
biso_c593 = false
biso_c594 = false
biso_c595 = false
biso_c596 = false
biso_c597 = false
biso_c598 = false
biso_c599 = false
biso_c6 = false
biso_c60 = false
biso_c600 = false
biso_c601 = false
biso_c602 = false
biso_c603 = false
biso_c604 = false
biso_c605 = false
biso_c606 = false
biso_c607 = false
biso_c608 = false
biso_c609 = false
biso_c61 = false
biso_c610 = false
biso_c611 = false
biso_c612 = false
biso_c613 = false
biso_c614 = false
biso_c615 = false
biso_c616 = false
biso_c617 = false
biso_c618 = false
biso_c619 = false
biso_c62 = false
biso_c620 = false
biso_c621 = false
biso_c622 = false
biso_c623 = false
biso_c624 = false
biso_c625 = false
biso_c626 = false
biso_c627 = false
biso_c628 = false
biso_c629 = false
biso_c63 = false
biso_c630 = false
biso_c631 = false
biso_c632 = false
biso_c633 = false
biso_c634 = false
biso_c635 = false
biso_c636 = false
biso_c637 = false
biso_c638 = false
biso_c639 = false
biso_c64 = false
biso_c640 = false
biso_c641 = false
biso_c642 = false
biso_c643 = false
biso_c644 = false
biso_c645 = false
biso_c646 = false
biso_c647 = false
biso_c648 = false
biso_c649 = false
biso_c65 = false
biso_c650 = false
biso_c651 = false
biso_c652 = false
biso_c653 = false
biso_c654 = false
biso_c655 = false
biso_c656 = false
biso_c657 = false
biso_c658 = false
biso_c659 = false
biso_c66 = false
biso_c660 = false
biso_c661 = false
biso_c662 = false
biso_c663 = false
biso_c664 = false
biso_c665 = false
biso_c666 = false
biso_c667 = false
biso_c668 = false
biso_c669 = false
biso_c67 = false
biso_c670 = false
biso_c671 = false
biso_c672 = false
biso_c673 = false
biso_c674 = false
biso_c675 = false
biso_c676 = false
biso_c677 = false
biso_c678 = false
biso_c679 = false
biso_c68 = false
biso_c680 = false
biso_c681 = false
biso_c682 = false
biso_c683 = false
biso_c684 = false
biso_c685 = false
biso_c686 = false
biso_c687 = false
biso_c688 = false
biso_c689 = false
biso_c69 = false
biso_c690 = false
biso_c691 = false
biso_c692 = false
biso_c693 = false
biso_c694 = false
biso_c695 = false
biso_c696 = false
biso_c697 = false
biso_c698 = false
biso_c699 = false
biso_c7 = false
biso_c70 = false
biso_c700 = false
biso_c701 = false
biso_c702 = false
biso_c703 = false
biso_c704 = false
biso_c705 = false
biso_c706 = false
biso_c707 = false
biso_c708 = false
biso_c709 = false
biso_c71 = false
biso_c710 = false
biso_c711 = false
biso_c712 = false
biso_c713 = false
biso_c714 = false
biso_c715 = false
biso_c716 = false
biso_c717 = false
biso_c718 = false
biso_c719 = false
biso_c72 = false
biso_c720 = false
biso_c721 = false
biso_c722 = false
biso_c723 = false
biso_c724 = false
biso_c725 = false
biso_c726 = false
biso_c727 = false
biso_c728 = false
biso_c729 = false
biso_c73 = false
biso_c730 = false
biso_c731 = false
biso_c732 = false
biso_c733 = false
biso_c734 = false
biso_c735 = false
biso_c736 = false
biso_c737 = false
biso_c738 = false
biso_c739 = false
biso_c74 = false
biso_c740 = false
biso_c741 = false
biso_c742 = false
biso_c743 = false
biso_c744 = false
biso_c745 = false
biso_c746 = false
biso_c747 = false
biso_c748 = false
biso_c749 = false
biso_c75 = false
biso_c750 = false
biso_c751 = false
biso_c752 = false
biso_c753 = false
biso_c754 = false
biso_c755 = false
biso_c756 = false
biso_c757 = false
biso_c758 = false
biso_c759 = false
biso_c76 = false
biso_c760 = false
biso_c761 = false
biso_c762 = false
biso_c763 = false
biso_c764 = false
biso_c765 = false
biso_c766 = false
biso_c767 = false
biso_c768 = false
biso_c77 = false
biso_c78 = false
biso_c79 = false
biso_c8 = false
biso_c80 = false
biso_c81 = false
biso_c82 = false
biso_c83 = false
biso_c84 = false
biso_c85 = false
biso_c86 = false
biso_c87 = false
biso_c88 = false
biso_c89 = false
biso_c9 = false
biso_c90 = false
biso_c91 = false
biso_c92 = false
biso_c93 = false
biso_c94 = false
biso_c95 = false
biso_c96 = false
biso_c97 = false
biso_c98 = false
biso_c99 = false
biso_h1 = false
biso_h10 = false
biso_h100 = false
biso_h101 = false
biso_h102 = false
biso_h103 = false
biso_h104 = false
biso_h105 = false
biso_h106 = false
biso_h107 = false
biso_h108 = false
biso_h109 = false
biso_h11 = false
biso_h110 = false
biso_h111 = false
biso_h112 = false
biso_h113 = false
biso_h114 = false
biso_h115 = false
biso_h116 = false
biso_h117 = false
biso_h118 = false
biso_h119 = false
biso_h12 = false
biso_h120 = false
biso_h121 = false
biso_h122 = false
biso_h123 = false
biso_h124 = false
biso_h125 = false
biso_h126 = false
biso_h127 = false
biso_h128 = false
biso_h129 = false
biso_h13 = false
biso_h130 = false
biso_h131 = false
biso_h132 = false
biso_h133 = false
biso_h134 = false
biso_h135 = false
biso_h136 = false
biso_h137 = false
biso_h138 = false
biso_h139 = false
biso_h14 = false
biso_h140 = false
biso_h141 = false
biso_h142 = false
biso_h143 = false
biso_h144 = false
biso_h145 = false
biso_h146 = false
biso_h147 = false
biso_h148 = false
biso_h149 = false
biso_h15 = false
biso_h150 = false
biso_h151 = false
biso_h152 = false
biso_h153 = false
biso_h154 = false
biso_h155 = false
biso_h156 = false
biso_h157 = false
biso_h158 = false
biso_h159 = false
biso_h16 = false
biso_h160 = false
biso_h161 = false
biso_h162 = false
biso_h163 = false
biso_h164 = false
biso_h165 = false
biso_h166 = false
biso_h167 = false
biso_h168 = false
biso_h169 = false
biso_h17 = false
biso_h170 = false
biso_h171 = false
biso_h172 = false
biso_h173 = false
biso_h174 = false
biso_h175 = false
biso_h176 = false
biso_h177 = false
biso_h178 = false
biso_h179 = false
biso_h18 = false
biso_h180 = false
biso_h181 = false
biso_h182 = false
biso_h183 = false
biso_h184 = false
biso_h185 = false
biso_h186 = false
biso_h187 = false
biso_h188 = false
biso_h189 = false
biso_h19 = false
biso_h190 = false
biso_h191 = false
biso_h192 = false
biso_h193 = false
biso_h194 = false
biso_h195 = false
biso_h196 = false
biso_h197 = false
biso_h198 = false
biso_h199 = false
biso_h2 = false
biso_h20 = false
biso_h200 = false
biso_h201 = false
biso_h202 = false
biso_h203 = false
biso_h204 = false
biso_h205 = false
biso_h206 = false
biso_h207 = false
biso_h208 = false
biso_h209 = false
biso_h21 = false
biso_h210 = false
biso_h211 = false
biso_h212 = false
biso_h213 = false
biso_h214 = false
biso_h215 = false
biso_h216 = false
biso_h217 = false
biso_h218 = false
biso_h219 = false
biso_h22 = false
biso_h220 = false
biso_h221 = false
biso_h222 = false
biso_h223 = false
biso_h224 = false
biso_h225 = false
biso_h226 = false
biso_h227 = false
biso_h228 = false
biso_h229 = false
biso_h23 = false
biso_h230 = false
biso_h231 = false
biso_h232 = false
biso_h233 = false
biso_h234 = false
biso_h235 = false
biso_h236 = false
biso_h237 = false
biso_h238 = false
biso_h239 = false
biso_h24 = false
biso_h240 = false
biso_h241 = false
biso_h242 = false
biso_h243 = false
biso_h244 = false
biso_h245 = false
biso_h246 = false
biso_h247 = false
biso_h248 = false
biso_h249 = false
biso_h25 = false
biso_h250 = false
biso_h251 = false
biso_h252 = false
biso_h253 = false
biso_h254 = false
biso_h255 = false
biso_h256 = false
biso_h257 = false
biso_h258 = false
biso_h259 = false
biso_h26 = false
biso_h260 = false
biso_h261 = false
biso_h262 = false
biso_h263 = false
biso_h264 = false
biso_h265 = false
biso_h266 = false
biso_h267 = false
biso_h268 = false
biso_h269 = false
biso_h27 = false
biso_h270 = false
biso_h271 = false
biso_h272 = false
biso_h273 = false
biso_h274 = false
biso_h275 = false
biso_h276 = false
biso_h277 = false
biso_h278 = false
biso_h279 = false
biso_h28 = false
biso_h280 = false
biso_h281 = false
biso_h282 = false
biso_h283 = false
biso_h284 = false
biso_h285 = false
biso_h286 = false
biso_h287 = false
biso_h288 = false
biso_h289 = false
biso_h29 = false
biso_h290 = false
biso_h291 = false
biso_h292 = false
biso_h293 = false
biso_h294 = false
biso_h295 = false
biso_h296 = false
biso_h297 = false
biso_h298 = false
biso_h299 = false
biso_h3 = false
biso_h30 = false
biso_h300 = false
biso_h301 = false
biso_h302 = false
biso_h303 = false
biso_h304 = false
biso_h305 = false
biso_h306 = false
biso_h307 = false
biso_h308 = false
biso_h309 = false
biso_h31 = false
biso_h310 = false
biso_h311 = false
biso_h312 = false
biso_h313 = false
biso_h314 = false
biso_h315 = false
biso_h316 = false
biso_h317 = false
biso_h318 = false
biso_h319 = false
biso_h32 = false
biso_h320 = false
biso_h321 = false
biso_h322 = false
biso_h323 = false
biso_h324 = false
biso_h325 = false
biso_h326 = false
biso_h327 = false
biso_h328 = false
biso_h329 = false
biso_h33 = false
biso_h330 = false
biso_h331 = false
biso_h332 = false
biso_h333 = false
biso_h334 = false
biso_h335 = false
biso_h336 = false
biso_h337 = false
biso_h338 = false
biso_h339 = false
biso_h34 = false
biso_h340 = false
biso_h341 = false
biso_h342 = false
biso_h343 = false
biso_h344 = false
biso_h345 = false
biso_h346 = false
biso_h347 = false
biso_h348 = false
biso_h349 = false
biso_h35 = false
biso_h350 = false
biso_h351 = false
biso_h352 = false
biso_h353 = false
biso_h354 = false
biso_h355 = false
biso_h356 = false
biso_h357 = false
biso_h358 = false
biso_h359 = false
biso_h36 = false
biso_h360 = false
biso_h361 = false
biso_h362 = false
biso_h363 = false
biso_h364 = false
biso_h365 = false
biso_h366 = false
biso_h367 = false
biso_h368 = false
biso_h369 = false
biso_h37 = false
biso_h370 = false
biso_h371 = false
biso_h372 = false
biso_h373 = false
biso_h374 = false
biso_h375 = false
biso_h376 = false
biso_h377 = false
biso_h378 = false
biso_h379 = false
biso_h38 = false
biso_h380 = false
biso_h381 = false
biso_h382 = false
biso_h383 = false
biso_h384 = false
biso_h385 = false
biso_h386 = false
biso_h387 = false
biso_h388 = false
biso_h389 = false
biso_h39 = false
biso_h390 = false
biso_h391 = false
biso_h392 = false
biso_h393 = false
biso_h394 = false
biso_h395 = false
biso_h396 = false
biso_h397 = false
biso_h398 = false
biso_h399 = false
biso_h4 = false
biso_h40 = false
biso_h400 = false
biso_h401 = false
biso_h402 = false
biso_h403 = false
biso_h404 = false
biso_h405 = false
biso_h406 = false
biso_h407 = false
biso_h408 = false
biso_h409 = false
biso_h41 = false
biso_h410 = false
biso_h411 = false
biso_h412 = false
biso_h413 = false
biso_h414 = false
biso_h415 = false
biso_h416 = false
biso_h417 = false
biso_h418 = false
biso_h419 = false
biso_h42 = false
biso_h420 = false
biso_h421 = false
biso_h422 = false
biso_h423 = false
biso_h424 = false
biso_h425 = false
biso_h426 = false
biso_h427 = false
biso_h428 = false
biso_h429 = false
biso_h43 = false
biso_h430 = false
biso_h431 = false
biso_h432 = false
biso_h433 = false
biso_h434 = false
biso_h435 = false
biso_h436 = false
biso_h437 = false
biso_h438 = false
biso_h439 = false
biso_h44 = false
biso_h440 = false
biso_h441 = false
biso_h442 = false
biso_h443 = false
biso_h444 = false
biso_h445 = false
biso_h446 = false
biso_h447 = false
biso_h448 = false
biso_h449 = false
biso_h45 = false
biso_h450 = false
biso_h451 = false
biso_h452 = false
biso_h453 = false
biso_h454 = false
biso_h455 = false
biso_h456 = false
biso_h46 = false
biso_h47 = false
biso_h48 = false
biso_h49 = false
biso_h5 = false
biso_h50 = false
biso_h51 = false
biso_h52 = false
biso_h53 = false
biso_h54 = false
biso_h55 = false
biso_h56 = false
biso_h57 = false
biso_h58 = false
biso_h59 = false
biso_h6 = false
biso_h60 = false
biso_h61 = false
biso_h62 = false
biso_h63 = false
biso_h64 = false
biso_h65 = false
biso_h66 = false
biso_h67 = false
biso_h68 = false
biso_h69 = false
biso_h7 = false
biso_h70 = false
biso_h71 = false
biso_h72 = false
biso_h73 = false
biso_h74 = false
biso_h75 = false
biso_h76 = false
biso_h77 = false
biso_h78 = false
biso_h79 = false
biso_h8 = false
biso_h80 = false
biso_h81 = false
biso_h82 = false
biso_h83 = false
biso_h84 = false
biso_h85 = false
biso_h86 = false
biso_h87 = false
biso_h88 = false
biso_h89 = false
biso_h9 = false
biso_h90 = false
biso_h91 = false
biso_h92 = false
biso_h93 = false
biso_h94 = false
biso_h95 = false
biso_h96 = false
biso_h97 = false
biso_h98 = false
biso_h99 = false
biso_n1 = false
biso_n10 = false
biso_n11 = false
biso_n12 = false
biso_n13 = false
biso_n14 = false
biso_n15 = false
biso_n16 = false
biso_n17 = false
biso_n18 = false
biso_n19 = false
biso_n2 = false
biso_n20 = false
biso_n21 = false
biso_n22 = false
biso_n23 = false
biso_n24 = false
biso_n25 = false
biso_n26 = false
biso_n27 = false
biso_n28 = false
biso_n29 = false
biso_n3 = false
biso_n30 = false
biso_n31 = false
biso_n32 = false
biso_n33 = false
biso_n34 = false
biso_n35 = false
biso_n36 = false
biso_n37 = false
biso_n38 = false
biso_n39 = false
biso_n4 = false
biso_n40 = false
biso_n41 = false
biso_n42 = false
biso_n43 = false
biso_n44 = false
biso_n45 = false
biso_n46 = false
biso_n47 = false
biso_n48 = false
biso_n49 = false
biso_n5 = false
biso_n50 = false
biso_n51 = false
biso_n52 = false
biso_n53 = false
biso_n54 = false
biso_n55 = false
biso_n56 = false
biso_n57 = false
biso_n58 = false
biso_n59 = false
biso_n6 = false
biso_n60 = false
biso_n61 = false
biso_n62 = false
biso_n63 = false
biso_n64 = false
biso_n65 = false
biso_n66 = false
biso_n67 = false
biso_n68 = false
biso_n69 = false
biso_n7 = false
biso_n70 = false
biso_n71 = false
biso_n72 = false
biso_n73 = false
biso_n74 = false
biso_n75 = false
biso_n76 = false
biso_n77 = false
biso_n78 = false
biso_n79 = false
biso_n8 = false
biso_n80 = false
biso_n81 = false
biso_n82 = false
biso_n83 = false
biso_n84 = false
biso_n85 = false
biso_n86 = false
biso_n87 = false
biso_n88 = false
biso_n89 = false
biso_n9 = false
biso_n90 = false
biso_n91 = false
biso_n92 = false
biso_n93 = false
biso_n94 = false
biso_n95 = false
biso_n96 = false
delta1 = false
delta2 = false

[bounds]

[contrast_factors]

[constraints]

