[files]
structure_file = Z:/Softwares/pdf_fitting_project/examples/2-Calcite-ball-milled/Calcite.cif
gr_data_file = Z:/Softwares/pdf_fitting_project/examples/2-Calcite-ball-milled/5-CaCO3-150min.integrated.subtracted_bkg.corr.2th.qmax20.xy

[range]
r_min = 2.0
r_max = 150.0

[pair_generation]
r_extension = 1.2

[refinement]
staged_refinement = false
refinement_r_step_final = 0.01
max_nfev_final = 60
ftol = 0.001
xtol = 0.001
gtol = 0.001
progress_every_sec = 0.5
compute_pair_contributions_on_finish = false
compute_warren_on_finish = false
compute_local_trends_on_finish = false
microstrain_model = pah
saxs_enabled = false
saxs_model = sphere
saxs_apply_qdamp = false
saxs_apply_qmax = true
export_finite_coordination = false

[initial_values]
scale = 0.09302239164656909
qdamp = 0.00787114336321576
delta_broad = 0.0014837841765491856
qmax = 20.0
qmax_zeros = 5.0
d = 71.63456862506776
d_std = 37.15614720466265
a = 4.986788528129382
b = 4.9889
c = 17.06767725388031
alpha = 90.0
beta = 90.0
gamma = 120.0
pah_a = 0.00014588306424318241
pah_b = 0.0
EdgeE1 = 2.740246037477882
EdgeE2 = 0.549663153263297
EdgeE3 = 0.03877943061292584
EdgeE4 = -2.202336751222348
ScrewE1 = 0.0
ScrewE2 = 0.0
ScrewE3 = 0.0
ScrewE4 = 0.0
fe = 1.0
delta1_o-o = 1.9797651592817591
delta1_c-o = 0.00010899408519407321
delta1_c-ca = 0.0078012928138398024
x_ca = 0.0
y_ca = 0.0
z_ca = 0.0
occ_ca = 1.0
x_c = 0.0
y_c = 0.0
z_c = 0.25
occ_c = 1.0
x_o = 0.25992
y_o = 0.0
z_o = 0.25
occ_o = 1.0
biso_C = 1.1825469601684728
biso_Ca = 0.46536481201007185
biso_O = 1.979801476558924
lambda_c-c_0 = 0.096
lambda_c-c_1 = 0.365
lambda_c-c_2 = 0.069
lambda_c-c_3 = 0.071
lambda_c-c_4 = 0.071
lambda_c-c_5 = 0.022
lambda_c-ca_0 = 0.414
lambda_c-ca_1 = 0.16
lambda_c-ca_2 = 0.224
lambda_c-ca_3 = 0.153
lambda_c-ca_4 = 0.161
lambda_c-ca_5 = 0.046
lambda_c-ca_6 = 0.176
lambda_c-o_0 = 0.962
lambda_c-o_1 = -0.066
lambda_c-o_2 = 0.529
lambda_c-o_3 = 0.299
lambda_c-o_4 = -0.019
lambda_ca-ca_0 = 0.521
lambda_ca-ca_1 = 0.189
lambda_ca-ca_2 = 0.309
lambda_ca-ca_3 = 0.21
lambda_ca-ca_4 = 0.209
lambda_ca-ca_5 = 0.259
lambda_ca-ca_6 = 0.148
lambda_ca-o_0 = 0.75
lambda_ca-o_1 = -0.401
lambda_ca-o_2 = 0.637
lambda_ca-o_3 = 0.138
lambda_ca-o_4 = 0.103
lambda_ca-o_5 = 0.157
lambda_o-o_0 = 0.949
lambda_o-o_1 = -0.315
lambda_o-o_2 = -0.216
lambda_o-o_3 = 0.666
lambda_o-o_4 = 0.28044

[refinable_parameters]
scale = True
a = True
b = False
c = True
alpha = False
beta = False
gamma = False
qdamp = False
delta_broad = False
qmax = False
qmax_zeros = False
d = True
d_std = True
pah_a = True
pah_b = False
EdgeE1 = False
EdgeE2 = False
EdgeE3 = False
EdgeE4 = False
ScrewE1 = False
ScrewE2 = False
ScrewE3 = False
ScrewE4 = False
fe = False
delta1_o-o = True
delta1_c-o = True
delta1_c-ca = True
x_ca = False
y_ca = False
z_ca = False
occ_ca = False
x_c = False
y_c = False
z_c = False
occ_c = False
x_o = False
y_o = False
z_o = False
occ_o = False
biso_C = False
biso_Ca = False
biso_O = False
lambda_c-c_0 = False
lambda_c-c_1 = False
lambda_c-c_2 = False
lambda_c-c_3 = False
lambda_c-c_4 = False
lambda_c-c_5 = False
lambda_c-ca_0 = False
lambda_c-ca_1 = False
lambda_c-ca_2 = False
lambda_c-ca_3 = False
lambda_c-ca_4 = False
lambda_c-ca_5 = False
lambda_c-ca_6 = False
lambda_c-o_0 = False
lambda_c-o_1 = False
lambda_c-o_2 = False
lambda_c-o_3 = False
lambda_c-o_4 = False
lambda_ca-ca_0 = False
lambda_ca-ca_1 = False
lambda_ca-ca_2 = False
lambda_ca-ca_3 = False
lambda_ca-ca_4 = False
lambda_ca-ca_5 = False
lambda_ca-ca_6 = False
lambda_ca-o_0 = False
lambda_ca-o_1 = False
lambda_ca-o_2 = False
lambda_ca-o_3 = False
lambda_ca-o_4 = False
lambda_ca-o_5 = False
lambda_o-o_0 = False
lambda_o-o_1 = False
lambda_o-o_2 = False
lambda_o-o_3 = False
lambda_o-o_4 = False

[bounds]
d = 0.0,
pah_a = 0.0, 0.001
delta1_o-o = 0.0,
delta1_c-o = 0.0,
delta1_c-ca = 0.0,
biso_C = 0, 10
biso_Ca = 0, 10
biso_O = 0, 10
lambda_c-c_0 = -1.000, 1.000
lambda_c-c_1 = -1.000, 1.000
lambda_c-c_2 = -1.000, 1.000
lambda_c-c_3 = -1.000, 1.000
lambda_c-c_4 = -1.000, 1.000
lambda_c-c_5 = -1.000, 1.000
lambda_c-ca_0 = -1.000, 1.000
lambda_c-ca_1 = -1.000, 1.000
lambda_c-ca_2 = -1.000, 1.000
lambda_c-ca_3 = -1.000, 1.000
lambda_c-ca_4 = -1.000, 1.000
lambda_c-ca_5 = -1.000, 1.000
lambda_c-ca_6 = -1.000, 1.000
lambda_c-o_0 = -1.000, 1.000
lambda_c-o_1 = -1.000, 1.000
lambda_c-o_2 = -1.000, 1.000
lambda_c-o_3 = -1.000, 1.000
lambda_c-o_4 = -1.000, 1.000
lambda_ca-ca_0 = -1.0, 1.0
lambda_ca-ca_1 = -1.0, 1.0
lambda_ca-ca_2 = -1.0, 1.0
lambda_ca-ca_3 = -1.0, 1.0
lambda_ca-ca_4 = -1.0, 1.0
lambda_ca-ca_5 = -1.0, 1.0
lambda_ca-ca_6 = -1.0, 1.0
lambda_ca-o_0 = -1.0, 1.0
lambda_ca-o_1 = -1.0, 1.0
lambda_ca-o_2 = -1.0, 1.0
lambda_ca-o_3 = -1.0, 1.0
lambda_ca-o_4 = -1.0, 1.0
lambda_ca-o_5 = -1.0, 1.0
lambda_o-o_0 = -1.0, 1.0
lambda_o-o_1 = -1.0, 1.0
lambda_o-o_2 = -1.0, 1.0
lambda_o-o_3 = -1.0, 1.0
lambda_o-o_4 = -1.0, 1.0

[constraints]

[crystallite_shape]
mode = conventional

