[files]
structure_file = Z:/Softwares/pdf_fitting_project/examples/1-FeCr-ball-milled/Fe_bcc_300K.cif
gr_data_file = Z:/Softwares/pdf_fitting_project/examples/1-FeCr-ball-milled/FeCr_ID31.xy

[range]
r_min = 2.0
r_max = 150.0

[pair_generation]
r_extension = 1.2

[refinement]
staged_refinement = false
refinement_r_step_final = 0.01
max_nfev_final = 60
ftol = 0.001
xtol = 0.001
gtol = 0.001
progress_every_sec = 0.5
microstrain_model = wilkens
saxs_enabled = false
saxs_model = sphere
saxs_apply_qdamp = false
saxs_apply_qmax = true
compute_pair_contributions_on_finish = false
compute_warren_on_finish = true
compute_local_trends_on_finish = true
export_finite_coordination = false

[initial_values]
scale = 0.2758212719186609
a = 2.8684345214184472
b = 2.8684345214184472
c = 2.8684345214184472
alpha = 90.0
beta = 90.0
gamma = 90.0
qdamp = 0.011485099495637478
delta_broad = 0.0014090180673610453
qmax = 20.0
qmax_zeros = 5.0
biso_fe = 0.3051413519141072
d = 112.44006012406759
d_std = 46.92369088671428
rho = 0.0001958541682853641
re = 112.44006012406759
fe = 0.6208505266637726
CEdgeA = 0.26528
CEdgeB = -0.35595
CScrewA = 0.307288
CScrewB = -0.819979
x_fe1 = 0.0
y_fe1 = 0.0
z_fe1 = 0.0
occ_fe1 = 1.0
biso_Fe = 0.29
occ_pd1 = 1.0
x_pd1 = 0.0
y_pd1 = 0.0
z_pd1 = 0.0
lambda_fe0plus-fe0plus_0 = 0.489
lambda_fe0plus-fe0plus_1 = 0.004
lambda_fe0plus-fe0plus_2 = 0.102
lambda_fe0plus-fe0plus_3 = 0.0

[refinable_parameters]
scale = true
a = true
b = false
c = false
alpha = false
beta = false
gamma = false
qdamp = false
delta_broad = false
qmax = false
qmax_zeros = false
biso_fe = true
d = true
d_std = true
rho = true
re = false
fe = true
CEdgeA = false
CEdgeB = false
CScrewA = false
CScrewB = false
x_fe1 = false
y_fe1 = false
z_fe1 = false
occ_fe1 = false
biso_Fe = false
occ_pd1 = false
x_pd1 = false
y_pd1 = false
z_pd1 = false
lambda_fe0plus-fe0plus_0 = true
lambda_fe0plus-fe0plus_1 = true
lambda_fe0plus-fe0plus_2 = true
lambda_fe0plus-fe0plus_3 = true

[bounds]
rho = 0.0, 0.1
fe = 0.0, 1.0
biso_Fe = 0, 10
lambda_fe0plus-fe0plus_0 = 0.000, 1.000
lambda_fe0plus-fe0plus_1 = 0.000, 1.000
lambda_fe0plus-fe0plus_2 = 0.000, 1.000
lambda_fe0plus-fe0plus_3 = 0.000, 1.000

[constraints]
re = d

[crystallite_shape]
mode = conventional

