[files]
structure_file = Z:/Softwares/pdf_fitting_project/config/Calcite.cif
gr_data_file = Z:/Softwares/pdf_fitting_project/data/4-CaCO3-120min.integrated.subtracted_bkg.corr.2th.qmax20.xy

[range]
r_min = 1.0
r_max = 150.0

[pair_generation]
r_extension = 1.2

[refinement]
staged_refinement = false
refinement_r_step_final = 0.01
max_nfev_final = 60
ftol = 0.001
xtol = 0.001
gtol = 0.001
progress_every_sec = 0.5
compute_pair_contributions_on_finish = false
compute_warren_on_finish = true
compute_local_trends_on_finish = true
microstrain_model = pah
saxs_enabled = false
saxs_model = sphere
saxs_apply_qdamp = false
saxs_apply_qmax = true
export_finite_coordination = false

[initial_values]
scale = 0.10804349280088993
qdamp = 0.00787114336321576
delta_broad = 0.0014837841765491856
qmax = 20.0
qmax_zeros = 5.0
d = 52.66027448231421
d_std = 28.185717352794992
a = 4.981409805359092
b = 4.9889
c = 17.067702474937175
alpha = 90.0
beta = 90.0
gamma = 120.0
pah_a = 0.00010609197921811843
pah_b = 0.0
EdgeE1 = -0.45615967192567003
EdgeE2 = -0.32521934846937645
EdgeE3 = 0.040110981377830666
EdgeE4 = -1.6861197895581679
ScrewE1 = 0.0
ScrewE2 = 0.0
ScrewE3 = 0.0
ScrewE4 = 0.0
fe = 1.0
x_ca = 0.0
y_ca = 0.0
z_ca = 0.0
occ_ca = 1.0
x_c = 0.0
y_c = 0.0
z_c = 0.25
occ_c = 1.0
x_o = 0.25992
y_o = 0.0
z_o = 0.25
occ_o = 1.0
biso_C = 2.4
biso_Ca = 1.45
biso_O = 2.73
delta1 = 0.0
occ_fe1 = 1.0
x_fe1 = 0.0
y_fe1 = 0.0
z_fe1 = 0.0
lambda_c-c_0 = 0.919
lambda_c-c_1 = 0.365
lambda_c-c_2 = 0.069
lambda_c-c_3 = 0.071
lambda_c-c_4 = 0.071
lambda_c-c_5 = 0.022
lambda_c-ca_0 = 0.4874687770480563
lambda_c-ca_1 = 0.16
lambda_c-ca_2 = 0.224
lambda_c-ca_3 = 0.153
lambda_c-ca_4 = 0.161
lambda_c-ca_5 = 0.046
lambda_c-ca_6 = 0.176
lambda_c-o_0 = 0.962
lambda_c-o_1 = -0.066
lambda_c-o_2 = 0.529
lambda_c-o_3 = 0.299
lambda_c-o_4 = -0.019
lambda_ca-ca_0 = 0.521
lambda_ca-ca_1 = 0.189
lambda_ca-ca_2 = 0.309
lambda_ca-ca_3 = 0.21
lambda_ca-ca_4 = 0.209
lambda_ca-ca_5 = 0.259
lambda_ca-ca_6 = 0.148
lambda_ca-o_0 = 0.813
lambda_ca-o_1 = -0.401
lambda_ca-o_2 = 0.637
lambda_ca-o_3 = 0.138
lambda_ca-o_4 = 0.103
lambda_ca-o_5 = 0.157
lambda_o-o_0 = 0.5317378887819173
lambda_o-o_1 = -0.315
lambda_o-o_2 = -0.216
lambda_o-o_3 = 0.666
lambda_o-o_4 = 0.28

[refinable_parameters]
scale = true
a = true
b = false
c = true
alpha = false
beta = false
gamma = false
qdamp = false
delta_broad = false
qmax = false
qmax_zeros = false
d = true
d_std = true
pah_a = true
pah_b = false
EdgeE1 = true
EdgeE2 = true
EdgeE3 = true
EdgeE4 = true
ScrewE1 = false
ScrewE2 = false
ScrewE3 = false
ScrewE4 = false
fe = false
x_ca = false
y_ca = false
z_ca = false
occ_ca = false
x_c = false
y_c = false
z_c = false
occ_c = false
x_o = false
y_o = false
z_o = false
occ_o = false
biso_C = false
biso_Ca = false
biso_O = false
delta1 = false
occ_fe1 = False
x_fe1 = False
y_fe1 = False
z_fe1 = False
lambda_c-c_0 = true
lambda_c-c_1 = false
lambda_c-c_2 = false
lambda_c-c_3 = false
lambda_c-c_4 = false
lambda_c-c_5 = false
lambda_c-ca_0 = true
lambda_c-ca_1 = false
lambda_c-ca_2 = false
lambda_c-ca_3 = false
lambda_c-ca_4 = false
lambda_c-ca_5 = false
lambda_c-ca_6 = false
lambda_c-o_0 = false
lambda_c-o_1 = false
lambda_c-o_2 = false
lambda_c-o_3 = false
lambda_c-o_4 = false
lambda_ca-ca_0 = false
lambda_ca-ca_1 = false
lambda_ca-ca_2 = false
lambda_ca-ca_3 = false
lambda_ca-ca_4 = false
lambda_ca-ca_5 = false
lambda_ca-ca_6 = false
lambda_ca-o_0 = false
lambda_ca-o_1 = false
lambda_ca-o_2 = false
lambda_ca-o_3 = false
lambda_ca-o_4 = false
lambda_ca-o_5 = false
lambda_o-o_0 = true
lambda_o-o_1 = false
lambda_o-o_2 = false
lambda_o-o_3 = false
lambda_o-o_4 = false

[bounds]
d = 0.0, 
pah_a = 0.0, 0.001
biso_C = 0.0, 10.0
biso_Ca = 0.0, 10.0
biso_O = 0.0, 10.0
lambda_c-c_0 = -1.000, 1.000
lambda_c-c_1 = -1.000, 1.000
lambda_c-c_2 = -1.000, 1.000
lambda_c-c_3 = -1.000, 1.000
lambda_c-c_4 = -1.000, 1.000
lambda_c-c_5 = -1.000, 1.000
lambda_c-ca_0 = -1.0, 1.0
lambda_c-ca_1 = -1.0, 1.0
lambda_c-ca_2 = -1.0, 1.0
lambda_c-ca_3 = -1.0, 1.0
lambda_c-ca_4 = -1.0, 1.0
lambda_c-ca_5 = -1.0, 1.0
lambda_c-ca_6 = -1.0, 1.0
lambda_c-o_0 = -1.0, 1.0
lambda_c-o_1 = -1.0, 1.0
lambda_c-o_2 = -1.0, 1.0
lambda_c-o_3 = -1.0, 1.0
lambda_c-o_4 = -1.0, 1.0
lambda_ca-ca_0 = -1.0, 1.0
lambda_ca-ca_1 = -1.0, 1.0
lambda_ca-ca_2 = -1.0, 1.0
lambda_ca-ca_3 = -1.0, 1.0
lambda_ca-ca_4 = -1.0, 1.0
lambda_ca-ca_5 = -1.0, 1.0
lambda_ca-ca_6 = -1.0, 1.0
lambda_ca-o_0 = -1.0, 1.0
lambda_ca-o_1 = -1.0, 1.0
lambda_ca-o_2 = -1.0, 1.0
lambda_ca-o_3 = -1.0, 1.0
lambda_ca-o_4 = -1.0, 1.0
lambda_ca-o_5 = -1.0, 1.0
lambda_o-o_0 = -1.0, 1.0
lambda_o-o_1 = -1.0, 1.0
lambda_o-o_2 = -1.0, 1.0
lambda_o-o_3 = -1.0, 1.0
lambda_o-o_4 = -1.0, 1.0

[constraints]

[crystallite_shape]
mode = conventional

