[files]
structure_file = data/Pd_Fm-3m_fcc_a_3_882942.cif
gr_data_file = data/pdf_weighted_final.xy

[range]
r_min = 1.0
r_max = 50

[initial_values]
scale = 1
biso_Pd = 0.3
delta_g = 0.006
delta_broad = 0
delta1 = 0
delta2 = 0.0
eta = 0
qdamp = 0
a = 3.882942
d = 100
d_std = 0
rho = 0
Re =  105
fE = 0.500000



[refinable_parameters]
scale = False
biso_Pd = False
delta_g = False
delta_broad = False
delta1 = False
delta2 = False
qdamp = False
eta = False
a = True
d = False
d_std = False
rho = False
Re =  False
fE =  False

[bounds]
scale = 0, 10.0
biso_Pd = 0, 2
delta_g = 0.0, 0.1
delta_broad = 0.0, 0.1
delta1 = 0.0, 2.0
delta2 = 0.0, 5.0
qdamp = 0.0, 2
eta = 0.0, 1.0
a = 3.80, 4
d = 5.0, 10000
d_std = 0.0, 1000
rho = 0, 0.1
Re = 5, 500
fE = 0, 1

[pair_generation]
r_extension = 1.2

[contrast_factors]
CEdgeA = 0.265280
CEdgeB = -0.355950
CScrewA = 0.307288
CScrewB = -0.819979
