[files]
structure_file = Z:/Softwares/pdf_fitting_project/data/Fe_bcc_300K.cif
gr_data_file = Z:/Softwares/pdf_fitting_project/data/FeCr_ID31.xy

[range]
r_min = 2.0
r_max = 150.0

[pair_generation]
r_extension = 1.2

[refinement]
staged_refinement = false
microstrain_model = isotropic
saxs_enabled = false
saxs_model = sphere
saxs_apply_qdamp = false
saxs_apply_qmax = true
compute_pair_contributions_on_finish = false
compute_warren_on_finish = true
compute_local_trends_on_finish = true
export_finite_coordination = false
refinement_r_step_final = 0.01
max_nfev_final = 60
ftol = 0.001
xtol = 0.001
gtol = 0.001
progress_every_sec = 0.5

[initial_values]
scale = 0.2692271125382103
qdamp = 0.011485099495637478
delta_broad = 0.0014090180673610453
qmax = 20.0
qmax_zeros = 5.0
d = 120.0
d_std = 40.0
a = 2.8683280873827335
b = 2.8683280873827335
c = 2.8683280873827335
alpha = 90.0
beta = 90.0
gamma = 90.0
x_fe1 = 0.0
y_fe1 = 0.0
z_fe1 = 0.0
occ_fe1 = 1.0
biso_fe1 = 0.5936945933041273
delta_g = 0.006246242914985814
delta1 = 1.7272980153571729

[refinable_parameters]
scale = True
a = True
b = False
c = False
alpha = False
beta = False
gamma = False
qdamp = False
delta_broad = False
qmax = False
qmax_zeros = False
d = False
d_std = False
x_fe1 = False
y_fe1 = False
z_fe1 = False
occ_fe1 = False
biso_fe1 = True
delta_g = True
delta1 = True

[bounds]
biso_fe1 = 0.0, 10.0
d = 0.0,
delta1 = 0,
d_std = 0,

[constraints]

[crystallite_shape]
mode = conventional

